 1  110   102   5
 2  76    170   10
 3  162   83    7
 4  104   147   2
 5  91    155   1
 6  80    110   3
 7  56    119   15
 8  95    164   4
 9  136   175   6
 10 114   84    11
 11 32    141   12